     Program PWSCF v.7.0 starts on 14Jan2025 at 15:18:52

     R & G space division:  proc/nbgrp/npool/nimage =       4

     Reading input from temp_scf.in

     Current dimensions of program PWSCF are:
     Max number of different atomic species (ntypx) = 10
     Max number of k-points (npk) =  40000
     Max angular momentum in pseudopotentials (lmaxx) =  4
     Found identity + ( -0.5000 -0.5000 -0.5000) symmetry
     This is a supercell, fractional translations are disabled

     Subspace diagonalization in iterative solution of the eigenvalue problem:
     a serial algorithm will be used

     Using Slab Decomposition

     bravais-lattice index     =            3
     lattice parameter (alat)  =       2.8000  a.u.
     unit-cell volume          =      10.9760 (a.u.)^3
     number of atoms/cell      =            2
     number of atomic types    =            1
     number of electrons       =         6.00
     number of Kohn-Sham states=            3
     kinetic-energy cutoff     =      65.0000  Ry
     charge density cutoff     =     260.0000  Ry
     scf convergence threshold =      1.0E-08
     mixing beta               =       0.7000
     number of iterations used =            8  plain     mixing
     Exchange-correlation= SLA  PW   PBX  PBC
                           (   1   4   3   4   0   0   0)

     celldm(1)=   2.800000  celldm(2)=   0.000000  celldm(3)=   0.000000
     celldm(4)=   0.000000  celldm(5)=   0.000000  celldm(6)=   0.000000

     crystal axes: (cart. coord. in units of alat)
               a(1) = (   0.500000   0.500000   0.500000 )
               a(2) = (  -0.500000   0.500000   0.500000 )
               a(3) = (  -0.500000  -0.500000   0.500000 )

     reciprocal axes: (cart. coord. in units 2 pi/alat)
               b(1) = (  1.000000  0.000000  1.000000 )
               b(2) = ( -1.000000  1.000000  0.000000 )
               b(3) = (  0.000000 -1.000000  1.000000 )

     PseudoPot. # 1 for Li read from file:
     ../../pseudopotentials/Li.pbe-s-kjpaw_psl.1.0.0.UPF
     MD5 check sum: d3662511b3860c829f7212fdb89d6128
     Pseudo is Projector augmented-wave, Zval =  3.0
     Generated using &quot;atomic&quot; code by A. Dal Corso  v.6.3
     Shape of augmentation charge: PSQ
     Using radial grid of 1017 points,  4 beta functions with:
                l(1) =   0
                l(2) =   0
                l(3) =   1
                l(4) =   1
     Q(r) pseudized with 0 coefficients

     atomic species   valence    mass     pseudopotential
        Li             3.00     6.94000     Li( 1.00)

     12 Sym. Ops., with inversion, found

   Cartesian axes

     site n.     atom                  positions (alat units)
         1           Li  tau(   1) = (   0.0000000   0.0000000   0.0000000  )
         2           Li  tau(   2) = (  -0.2500000   0.2500000   0.7500000  )

     number of k points=    65
                       cart. coord. in units 2pi/alat
        k(    1) = (   0.0000000   0.0000000   0.0000000), wk =   0.0039062
        k(    2) = (   0.0000000  -0.1250000   0.1250000), wk =   0.0234375
        k(    3) = (   0.0000000  -0.2500000   0.2500000), wk =   0.0234375
        k(    4) = (   0.0000000  -0.3750000   0.3750000), wk =   0.0234375
        k(    5) = (   0.0000000   0.5000000  -0.5000000), wk =   0.0117188
        k(    6) = (  -0.1250000  -0.1250000   0.2500000), wk =   0.0468750
        k(    7) = (  -0.1250000  -0.2500000   0.3750000), wk =   0.0468750
        k(    8) = (  -0.1250000   0.6250000  -0.5000000), wk =   0.0468750
        k(    9) = (  -0.2500000   0.7500000  -0.5000000), wk =   0.0468750
        k(   10) = (  -0.2500000   0.6250000  -0.3750000), wk =   0.0468750
        k(   11) = (   0.0000000   0.0000000   0.2500000), wk =   0.0234375
        k(   12) = (   0.0000000  -0.1250000   0.3750000), wk =   0.0468750
        k(   13) = (   0.0000000  -0.2500000   0.5000000), wk =   0.0468750
        k(   14) = (   0.0000000   0.6250000  -0.3750000), wk =   0.0234375
        k(   15) = (  -0.1250000  -0.1250000   0.5000000), wk =   0.0468750
        k(   16) = (  -0.1250000   0.7500000  -0.3750000), wk =   0.0468750
        k(   17) = (  -0.2500000   0.2500000   0.2500000), wk =   0.0234375
        k(   18) = (  -0.2500000   0.7500000  -0.2500000), wk =   0.0234375
        k(   19) = (   0.6250000  -0.6250000   0.2500000), wk =   0.0234375
        k(   20) = (   0.5000000  -0.5000000   0.2500000), wk =   0.0234375
        k(   21) = (   0.5000000  -0.6250000   0.3750000), wk =   0.0468750
        k(   22) = (   0.0000000   0.0000000   0.5000000), wk =   0.0234375
        k(   23) = (   0.0000000  -0.1250000   0.6250000), wk =   0.0468750
        k(   24) = (   0.0000000   0.7500000  -0.2500000), wk =   0.0234375
        k(   25) = (  -0.1250000   0.8750000  -0.2500000), wk =   0.0468750
        k(   26) = (   0.5000000  -0.5000000   0.5000000), wk =   0.0078125
        k(   27) = (   0.0000000   0.0000000   0.7500000), wk =   0.0234375
        k(   28) = (   0.0000000   0.8750000  -0.1250000), wk =   0.0234375
        k(   29) = (   0.0000000   0.0000000  -1.0000000), wk =   0.0039062
        k(   30) = (   0.0000000   0.1250000   0.1250000), wk =   0.0234375
        k(   31) = (   0.0000000   0.2500000   0.2500000), wk =   0.0234375
        k(   32) = (   0.0000000   0.3750000   0.3750000), wk =   0.0234375
        k(   33) = (   0.0000000  -0.5000000  -0.5000000), wk =   0.0117188
        k(   34) = (  -0.1250000   0.1250000  -0.2500000), wk =   0.0234375
        k(   35) = (  -0.1250000  -0.2500000  -0.1250000), wk =   0.0234375
        k(   36) = (  -0.1250000   0.2500000  -0.3750000), wk =   0.0468750
        k(   37) = (  -0.1250000   0.3750000   0.2500000), wk =   0.0468750
        k(   38) = (  -0.1250000  -0.3750000  -0.2500000), wk =   0.0468750
        k(   39) = (  -0.1250000  -0.6250000   0.5000000), wk =   0.0468750
        k(   40) = (  -0.1250000  -0.5000000  -0.6250000), wk =   0.0468750
        k(   41) = (  -0.1250000   0.5000000   0.6250000), wk =   0.0468750
        k(   42) = (  -0.2500000  -0.7500000   0.5000000), wk =   0.0234375
        k(   43) = (  -0.2500000   0.5000000   0.7500000), wk =   0.0234375
        k(   44) = (  -0.2500000  -0.3750000  -0.6250000), wk =   0.0234375
        k(   45) = (  -0.2500000   0.3750000   0.6250000), wk =   0.0234375
        k(   46) = (   0.0000000   0.3750000   0.1250000), wk =   0.0468750
        k(   47) = (   0.0000000   0.5000000   0.2500000), wk =   0.0468750
        k(   48) = (   0.0000000  -0.3750000  -0.6250000), wk =   0.0234375
        k(   49) = (  -0.1250000   0.1250000  -0.5000000), wk =   0.0234375
        k(   50) = (  -0.1250000  -0.5000000  -0.1250000), wk =   0.0234375
        k(   51) = (  -0.1250000  -0.7500000   0.3750000), wk =   0.0468750
        k(   52) = (  -0.1250000  -0.3750000  -0.7500000), wk =   0.0468750
        k(   53) = (  -0.1250000   0.3750000   0.7500000), wk =   0.0468750
        k(   54) = (  -0.2500000   0.2500000  -0.2500000), wk =   0.0078125
        k(   55) = (  -0.2500000   0.2500000   0.7500000), wk =   0.0078125
        k(   56) = (   0.6250000   0.6250000  -0.2500000), wk =   0.0468750
        k(   57) = (   0.6250000   0.2500000   0.6250000), wk =   0.0234375
        k(   58) = (   0.5000000   0.5000000  -0.2500000), wk =   0.0234375
        k(   59) = (   0.5000000   0.3750000   0.6250000), wk =   0.0234375
        k(   60) = (   0.5000000  -0.3750000  -0.6250000), wk =   0.0234375
        k(   61) = (   0.0000000   0.6250000   0.1250000), wk =   0.0468750
        k(   62) = (   0.0000000  -0.2500000  -0.7500000), wk =   0.0234375
        k(   63) = (  -0.1250000  -0.8750000   0.2500000), wk =   0.0234375
        k(   64) = (  -0.1250000   0.2500000   0.8750000), wk =   0.0234375
        k(   65) = (   0.0000000  -0.1250000  -0.8750000), wk =   0.0234375

     Initial potential from superposition of free atoms

     starting charge       5.9908, renormalised to       6.0000
     Starting wfcs are   10 randomized atomic wfcs
     Checking if some PAW data can be deallocated...

     Self-consistent Calculation

     iteration #  1     ecut=    65.00 Ry     beta= 0.70
     Davidson diagonalization with overlap
     ethr =  1.00E-02,  avg # of iterations =  2.9

     Threshold (ethr) on eigenvalues was too large:
     Diagonalizing with lowered threshold

     Davidson diagonalization with overlap
     ethr =  3.58E-04,  avg # of iterations =  1.7

     total energy              =     -24.34171274 Ry
     estimated scf accuracy    <       0.02106203 Ry

[...]

     total energy              =     -24.35189422 Ry
     estimated scf accuracy    <       0.00000077 Ry

     iteration # 24     ecut=    65.00 Ry     beta= 0.70
     Davidson diagonalization with overlap
     ethr =  1.86E-09,  avg # of iterations =  2.5

     End of self-consistent calculation

          k = 0.0000 0.0000 0.0000 (    87 PWs)   bands (ev):

   -44.4953  26.1083  64.3031

[...]

          k =-0.1250-0.1250 0.2500 (    96 PWs)   bands (ev):

[...]

          k =-0.1250 0.2500 0.8750 (   103 PWs)   bands (ev):

[...]

          k = 0.0000-0.1250-0.8750 (   104 PWs)   bands (ev):

   -21.1654  -2.2133  44.3913

     highest occupied level (ev):    72.1584

!    total energy              =     -24.35189427 Ry

     total all-electron energy =       -24.351917 Ry
     estimated scf accuracy    <          1.3E-09 Ry

     The total energy is the sum of the following terms:
     one-electron contribution =       7.47957007 Ry
     hartree contribution      =       3.65403753 Ry
     xc contribution           =      -9.74716114 Ry
     ewald contribution        =     -25.97272408 Ry
     one-center paw contrib.   =       0.23438335 Ry

     convergence has been achieved in  24 iterations

     Writing all to output data dir ./tmp/Li.save/

     General routines

     Parallel routines

   This run was terminated on:  15:18:52  14Jan2025

   JOB DONE.