     Program PWSCF v.7.3.1 starts on  3Feb2025 at 13:58:54

     Reading input from li_vc_relax_calculation.in

     Current dimensions of program PWSCF are:
     Max number of different atomic species (ntypx) = 10
     Max number of k-points (npk) =  40000
     Max angular momentum in pseudopotentials (lmaxx) =  4
     Found identity + ( -0.5000 -0.5000 -0.5000) symmetry
     This is a supercell, fractional translations are disabled

     R & G space division:  proc/nbgrp/npool/nimage =       4
     Subspace diagonalization in iterative solution of the eigenvalue problem:
     a serial algorithm will be used

     Using Slab Decomposition

     bravais-lattice index     =            3
     lattice parameter (alat)  =       6.6000  a.u.
     unit-cell volume          =     143.7480 (a.u.)^3
     number of atoms/cell      =            2
     number of atomic types    =            1
     number of electrons       =         6.00
     number of Kohn-Sham states=            7
     kinetic-energy cutoff     =      65.0000  Ry
     charge density cutoff     =     300.0000  Ry
     scf convergence threshold =      1.0E-08
     mixing beta               =       0.7000
     number of iterations used =            8  plain     mixing
     energy convergence thresh.=      1.0E-04
     force convergence thresh. =      1.0E-03
     press convergence thresh. =      5.0E-01
     Exchange-correlation= SLA  PW   PBX  PBC
                           (   1   4   3   4   0   0   0)
     nstep                     =           50

     celldm(1)=   6.600000  celldm(2)=   0.000000  celldm(3)=   0.000000
     celldm(4)=   0.000000  celldm(5)=   0.000000  celldm(6)=   0.000000

     crystal axes: (cart. coord. in units of alat)
               a(1) = (   0.500000   0.500000   0.500000 )
               a(2) = (  -0.500000   0.500000   0.500000 )
               a(3) = (  -0.500000  -0.500000   0.500000 )

     reciprocal axes: (cart. coord. in units 2 pi/alat)
               b(1) = (  1.000000  0.000000  1.000000 )
               b(2) = ( -1.000000  1.000000  0.000000 )
               b(3) = (  0.000000 -1.000000  1.000000 )

     PseudoPot. # 1 for Li read from file:
     ../pseudopotentials/Li.pbe-s-kjpaw_psl.1.0.0.UPF
     MD5 check sum: d3662511b3860c829f7212fdb89d6128
     Pseudo is Projector augmented-wave, Zval =  3.0
     Generated using &quot;atomic&quot; code by A. Dal Corso  v.6.3
     Shape of augmentation charge: PSQ
     Using radial grid of 1017 points,  4 beta functions with:
                l(1) =   0
                l(2) =   0
                l(3) =   1
                l(4) =   1
     Q(r) pseudized with 0 coefficients

     atomic species   valence    mass     pseudopotential
     Li                3.00     6.94000     Li( 1.00)

     12 Sym. Ops., with inversion, found

   Cartesian axes

     site n.     atom                  positions (alat units)
         1        Li     tau(   1) = (   0.0000000   0.0000000   0.0000000  )
         2        Li     tau(   2) = (  -0.2500000   0.2500000   0.7500000  )

     number of k points=    32  Gaussian smearing, width (Ry)=  0.0100
                       cart. coord. in units 2pi/alat
        k(    1) = (   0.0000000   0.0000000   0.0000000), wk =   0.0092593
        k(    2) = (   0.0000000  -0.1666667   0.1666667), wk =   0.0555556
        k(    3) = (   0.0000000  -0.3333333   0.3333333), wk =   0.0555556
        k(    4) = (   0.0000000   0.5000000  -0.5000000), wk =   0.0277778
        k(    5) = (  -0.1666667  -0.1666667   0.3333333), wk =   0.1111111
        k(    6) = (  -0.1666667   0.6666667  -0.5000000), wk =   0.1111111
        k(    7) = (  -0.3333333   0.6666667  -0.3333333), wk =   0.0555556
        k(    8) = (   0.0000000   0.0000000   0.3333333), wk =   0.0555556
        k(    9) = (   0.0000000  -0.1666667   0.5000000), wk =   0.1111111
        k(   10) = (   0.0000000   0.6666667  -0.3333333), wk =   0.0555556
        k(   11) = (  -0.1666667   0.8333333  -0.3333333), wk =   0.1111111
        k(   12) = (   0.6666667  -0.6666667   0.3333333), wk =   0.0555556
        k(   13) = (   0.5000000  -0.5000000   0.3333333), wk =   0.0555556
        k(   14) = (   0.0000000   0.0000000   0.6666667), wk =   0.0555556
        k(   15) = (   0.0000000   0.8333333  -0.1666667), wk =   0.0555556
        k(   16) = (   0.0000000   0.0000000  -1.0000000), wk =   0.0092593
        k(   17) = (   0.0000000   0.1666667   0.1666667), wk =   0.0555556
        k(   18) = (   0.0000000   0.3333333   0.3333333), wk =   0.0555556
        k(   19) = (   0.0000000  -0.5000000  -0.5000000), wk =   0.0277778
        k(   20) = (  -0.1666667   0.1666667  -0.3333333), wk =   0.0555556
        k(   21) = (  -0.1666667  -0.3333333  -0.1666667), wk =   0.0555556
        k(   22) = (  -0.1666667  -0.6666667   0.5000000), wk =   0.1111111
        k(   23) = (  -0.1666667  -0.5000000  -0.6666667), wk =   0.1111111
        k(   24) = (  -0.1666667   0.5000000   0.6666667), wk =   0.1111111
        k(   25) = (  -0.3333333   0.3333333   0.6666667), wk =   0.0185185
        k(   26) = (   0.0000000   0.5000000   0.1666667), wk =   0.1111111
        k(   27) = (   0.0000000  -0.3333333  -0.6666667), wk =   0.0555556
        k(   28) = (  -0.1666667  -0.8333333   0.3333333), wk =   0.0555556
        k(   29) = (  -0.1666667   0.3333333   0.8333333), wk =   0.0555556
        k(   30) = (   0.6666667   0.3333333   0.6666667), wk =   0.0185185
        k(   31) = (   0.5000000   0.5000000  -0.3333333), wk =   0.0555556
        k(   32) = (   0.0000000  -0.1666667  -0.8333333), wk =   0.0555556

     Initial potential from superposition of free atoms

     starting charge       5.9908, renormalised to       6.0000
     Starting wfcs are   10 randomized atomic wfcs
     Checking if some PAW data can be deallocated...

     Self-consistent Calculation

     iteration #  1     ecut=    65.00 Ry     beta= 0.70
     Davidson diagonalization with overlap
     ethr =  1.00E-02,  avg # of iterations =  3.6

     Threshold (ethr) on eigenvalues was too large:
     Diagonalizing with lowered threshold

     Davidson diagonalization with overlap
     ethr =  1.02E-04,  avg # of iterations =  2.2

     total energy              =     -29.86972589 Ry
     estimated scf accuracy    <       0.00596738 Ry

[...]

     End of self-consistent calculation

          k = 0.0000 0.0000 0.0000 (  1253 PWs)   bands (ev):

   -45.6635 -43.6336  -0.4930  10.7389  13.9181  13.9181  18.5060

[...]

          k =-0.1667-0.1667 0.3333 (  1276 PWs)   bands (ev):

[...]

     the Fermi energy is     4.0800 ev

!    total energy              =     -29.86993272 Ry
     total all-electron energy =       -29.869955 Ry
     estimated scf accuracy    <          8.9E-09 Ry
     smearing contrib. (-TS)   =      -0.00028587 Ry
     internal energy E=F+TS    =     -29.86964686 Ry

     The total energy is F=E-TS. E is the sum of the following terms:
     one-electron contribution =     -19.32890374 Ry
     hartree contribution      =       7.71168619 Ry
     xc contribution           =      -7.39981901 Ry
     ewald contribution        =     -11.01873119 Ry
     one-center paw contrib.   =       0.16612088 Ry

     convergence has been achieved in   5 iterations

     Forces acting on atoms (cartesian axes, Ry/au):

     atom    1 type  1   force =     0.00000000    0.00000000    0.00000000
     atom    2 type  1   force =     0.00000000    0.00000000    0.00000000

     Total force =     0.000000     Total SCF correction =     0.000000

     Computing stress (Cartesian axis) and pressure

          total   stress  (Ry/bohr**3)                   (kbar)     P=      218.57
   0.00148583  -0.00209556   0.00209556          218.57     -308.27      308.27
  -0.00209556   0.00148583  -0.00209556         -308.27      218.57     -308.27
   0.00209556  -0.00209556   0.00148583          308.27     -308.27      218.57

     BFGS Geometry Optimization
     Energy error            =      0.0E+00 Ry
     Gradient error          =      0.0E+00 Ry/Bohr
     Cell gradient error     =      3.1E+02 kbar

     number of scf cycles    =   1
     number of bfgs steps    =   0

     enthalpy           new  =     -29.8699327217 Ry

     new trust radius        =       0.1987368362 bohr
     new conv_thr            =       0.0000000100 Ry

     new unit-cell volume =    159.18311 a.u.^3 (    23.58850 Ang^3 )
     density =      0.97710 g/cm^3

CELL_PARAMETERS (alat=  6.60000000)
   0.518572928   0.466183959   0.518572928
  -0.518572928   0.518572928   0.466183959
  -0.466183959  -0.518572928   0.518572928

ATOMIC_POSITIONS (crystal)
Li               0.0000000000        0.0000000000        0.0000000000
Li               0.5000000000        0.5000000000        0.5000000000

     Writing config-only to output data dir ./tmp/Li_BCC.save/ :
     XML data file
     NEW-OLD atomic charge density approx. for the potential

[...]

     Energy error            =      8.9E-02 Ry
     Gradient error          =      8.3E-32 Ry/Bohr
     Cell gradient error     =      1.7E+02 kbar

[...]

     enthalpy           old  =     -29.8699327217 Ry
     enthalpy           new  =     -29.9586054700 Ry

     CASE: enthalpy          _new < enthalpy          _old

[...]

     number of scf cycles    =   7
     number of bfgs steps    =   6

     enthalpy           old  =     -30.0267435628 Ry
     enthalpy           new  =     -30.0267448457 Ry

     CASE: enthalpy          _new < enthalpy          _old

     new trust radius        =       0.0016114248 bohr
     new conv_thr            =            1.0E-10 Ry

     new unit-cell volume =    200.08925 a.u.^3 (    29.65017 Ang^3 )
     density =      0.77734 g/cm^3

[...]

ATOMIC_POSITIONS (crystal)
Li              -0.0000000000        0.0000000000       -0.0000000000
Li               0.5000000000        0.5000000000        0.5000000000

     Writing config-only to output data dir ./tmp/Li_BCC.save/ :
     XML data file
     NEW-OLD atomic charge density approx. for the potential

[...]

     Threshold (ethr) on eigenvalues was too large:
     Diagonalizing with lowered threshold

     Davidson diagonalization with overlap
     ethr =  4.33E-10,  avg # of iterations =  3.0

[...]

     Energy error            =      1.2E-06 Ry
     Gradient error          =      8.4E-31 Ry/Bohr
     Cell gradient error     =      3.0E-01 kbar

     bfgs converged in   8 scf cycles and   7 bfgs steps
     (criteria: energy <  1.0E-04 Ry, force <  1.0E-03 Ry/Bohr, cell <  5.0E-01 kbar)

     End of BFGS Geometry Optimization

     Final enthalpy           =     -30.0267460254 Ry

     File ./tmp/Li_BCC.bfgs deleted, as requested
Begin final coordinates
     new unit-cell volume =    200.08925 a.u.^3 (    29.65017 Ang^3 )
     density =      0.77734 g/cm^3

CELL_PARAMETERS (alat=  6.60000000)
   0.569096747   0.405565981   0.569096747
  -0.569096747   0.569096747   0.405565981
  -0.405565981  -0.569096747   0.569096747

ATOMIC_POSITIONS (crystal)
Li              -0.0000000000        0.0000000000       -0.0000000000
Li               0.5000000000        0.5000000000        0.5000000000
End final coordinates

     Writing config-only to output data dir ./tmp/Li_BCC.save/ :
     XML data file

     Final scf calculation at the relaxed structure.
     The G-vectors are recalculated for the final unit cell
     Results may differ from those at the preceding step.

     Using Slab Decomposition

     bravais-lattice index     =            3
     lattice parameter (alat)  =       6.6000  a.u.
     unit-cell volume          =     200.0892 (a.u.)^3
     number of atoms/cell      =            2
     number of atomic types    =            1
     number of electrons       =         6.00
     number of Kohn-Sham states=            7
     kinetic-energy cutoff     =      65.0000  Ry
     charge density cutoff     =     300.0000  Ry
     scf convergence threshold =      1.0E-10
     mixing beta               =       0.7000
     number of iterations used =            8  plain     mixing
     press convergence thresh. =      5.0E-01
     Exchange-correlation= SLA  PW   PBX  PBC
                           (   1   4   3   4   0   0   0)

     celldm(1)=   6.600000  celldm(2)=   0.000000  celldm(3)=   0.000000
     celldm(4)=   0.000000  celldm(5)=   0.000000  celldm(6)=   0.000000

     crystal axes: (cart. coord. in units of alat)
               a(1) = (   0.569097   0.405566   0.569097 )
               a(2) = (  -0.569097   0.569097   0.405566 )
               a(3) = (  -0.405566  -0.569097   0.569097 )

     reciprocal axes: (cart. coord. in units 2 pi/alat)
               b(1) = (  0.796982  0.229014  0.796982 )
               b(2) = ( -0.796982  0.796982  0.229014 )
               b(3) = ( -0.229014 -0.796982  0.796982 )

     PseudoPot. # 1 for Li read from file:
     ../pseudopotentials/Li.pbe-s-kjpaw_psl.1.0.0.UPF
     MD5 check sum: d3662511b3860c829f7212fdb89d6128
     Pseudo is Projector augmented-wave, Zval =  3.0
     Generated using &quot;atomic&quot; code by A. Dal Corso  v.6.3
     Shape of augmentation charge: PSQ
     Using radial grid of 1017 points,  4 beta functions with:
                l(1) =   0
                l(2) =   0
                l(3) =   1
                l(4) =   1
     Q(r) pseudized with 0 coefficients

     atomic species   valence    mass     pseudopotential
     Li                3.00     6.94000     Li( 1.00)

     12 Sym. Ops., with inversion, found

   Cartesian axes

     site n.     atom                  positions (alat units)
         1        Li     tau(   1) = (  -0.0000000   0.0000000  -0.0000000  )
         2        Li     tau(   2) = (  -0.2027830   0.2027830   0.7718797  )

     number of k points=    32  Gaussian smearing, width (Ry)=  0.0100
                       cart. coord. in units 2pi/alat
        k(    1) = (   0.0000000   0.0000000   0.0000000), wk =   0.0092593
        k(    2) = (  -0.0381690  -0.1328303   0.1328303), wk =   0.0555556
        k(    3) = (  -0.0763380  -0.2656607   0.2656607), wk =   0.0555556
        k(    4) = (   0.1145070   0.3984910  -0.3984910), wk =   0.0277778
        k(    5) = (  -0.2091683  -0.1328303   0.3038297), wk =   0.1111111
        k(    6) = (  -0.0183234   0.5313213  -0.3603220), wk =   0.1111111
        k(    7) = (  -0.1893227   0.5313213  -0.1893227), wk =   0.0555556
        k(    8) = (  -0.0381690   0.0381690   0.3038297), wk =   0.0555556
        k(    9) = (  -0.0763380  -0.0946613   0.4366600), wk =   0.1111111
        k(   10) = (   0.1145070   0.5694903  -0.2274917), wk =   0.0555556
        k(   11) = (  -0.0183234   0.7023207  -0.1893227), wk =   0.1111111
        k(   12) = (   0.4931524  -0.4931524   0.1511537), wk =   0.0555556
        k(   13) = (   0.3603220  -0.3603220   0.1893227), wk =   0.0555556
        k(   14) = (  -0.0763380   0.0763380   0.6076593), wk =   0.0555556
        k(   15) = (   0.1145070   0.7404897  -0.0564924), wk =   0.0555556
        k(   16) = (   0.1145070  -0.1145070  -0.9114890), wk =   0.0092593
        k(   17) = (   0.0000000   0.1709993   0.1709993), wk =   0.0555556
        k(   18) = (   0.0000000   0.3419986   0.3419986), wk =   0.0555556
        k(   19) = (  -0.0000000  -0.5129980  -0.5129980), wk =   0.0277778
        k(   20) = (  -0.0946613   0.0946613  -0.2656607), wk =   0.0555556
        k(   21) = (  -0.1709993  -0.3419986  -0.1709993), wk =   0.0555556
        k(   22) = (  -0.2855063  -0.5694903   0.3984910), wk =   0.1111111
        k(   23) = (  -0.1328303  -0.5511670  -0.6458283), wk =   0.1111111
        k(   24) = (  -0.1709993   0.5129980   0.6839973), wk =   0.1111111
        k(   25) = (  -0.3419986   0.3419986   0.6839973), wk =   0.0185185
        k(   26) = (   0.0381690   0.4748290   0.2091683), wk =   0.1111111
        k(   27) = (   0.0381690  -0.3801676  -0.6458283), wk =   0.0555556
        k(   28) = (  -0.2855063  -0.7404897   0.2274917), wk =   0.0555556
        k(   29) = (  -0.2091683   0.3801676   0.8168276), wk =   0.0555556
        k(   30) = (   0.5694903   0.4565056   0.5694903), wk =   0.0185185
        k(   31) = (   0.5511670   0.4748290  -0.3038297), wk =   0.0555556
        k(   32) = (   0.0763380  -0.2473373  -0.7786586), wk =   0.0555556

     Initial potential from superposition of free atoms

     starting charge       5.9908, renormalised to       6.0000
     Starting wfcs are   10 randomized atomic wfcs
     Checking if some PAW data can be deallocated...

     Self-consistent Calculation

     iteration #  1     ecut=    65.00 Ry     beta= 0.70
     Davidson diagonalization with overlap
     c_bands:  1 eigenvalues not converged
     c_bands:  1 eigenvalues not converged
     ethr =  1.00E-06,  avg # of iterations = 12.2

[...]

     total energy              =     -30.05723844 Ry
     estimated scf accuracy    <          1.0E-09 Ry

     iteration #  7     ecut=    65.00 Ry     beta= 0.70
     Davidson diagonalization with overlap
     ethr =  8.97E-12,  avg # of iterations =  2.0

     End of self-consistent calculation

[...]

          k =-0.2092 0.3802 0.8168 (  1768 PWs)   bands (ev):

[...]

          k = 0.0763-0.2473-0.7787 (  1769 PWs)   bands (ev):

   -44.2767 -44.2112   3.0016   4.6659   5.2423   7.2712   8.3480

     the Fermi energy is     1.9685 ev

!    total energy              =     -30.05723844 Ry
     total all-electron energy =       -30.057261 Ry
     estimated scf accuracy    <          4.2E-12 Ry
     smearing contrib. (-TS)   =      -0.00014715 Ry
     internal energy E=F+TS    =     -30.05709129 Ry

     The total energy is F=E-TS. E is the sum of the following terms:
     one-electron contribution =     -19.66701398 Ry
     hartree contribution      =       7.77511133 Ry
     xc contribution           =      -7.29834893 Ry
     ewald contribution        =     -11.03333274 Ry
     one-center paw contrib.   =       0.16649302 Ry

     convergence has been achieved in   7 iterations

     Forces acting on atoms (cartesian axes, Ry/au):

     atom    1 type  1   force =     0.00000000    0.00000000    0.00000000
     atom    2 type  1   force =    -0.00000000   -0.00000000   -0.00000000

     Total force =     0.000000     Total SCF correction =     0.000000

     Computing stress (Cartesian axis) and pressure

          total   stress  (Ry/bohr**3)                   (kbar)     P=       62.75
   0.00042659  -0.00037293   0.00037293           62.75      -54.86       54.86
  -0.00037293   0.00042659  -0.00037293          -54.86       62.75      -54.86
   0.00037293  -0.00037293   0.00042659           54.86      -54.86       62.75

     Writing all to output data dir ./tmp/Li_BCC.save/ :
     XML data file, charge density, pseudopotentials, collected wavefunctions

     General routines

     Parallel routines

   This run was terminated on:  13:59: 0   3Feb2025

   JOB DONE.