     Program PWSCF v.7.3.1 starts on  3Feb2025 at 13:30:53

     Reading input from li_vc_relax_calculation.in

     Current dimensions of program PWSCF are:
     Max number of different atomic species (ntypx) = 10
     Max number of k-points (npk) =  40000
     Max angular momentum in pseudopotentials (lmaxx) =  4
     Found identity + ( -0.5000 -0.5000 -0.5000) symmetry
     This is a supercell, fractional translations are disabled

     R & G space division:  proc/nbgrp/npool/nimage =       4
     Subspace diagonalization in iterative solution of the eigenvalue problem:
     a serial algorithm will be used

     Using Slab Decomposition

     bravais-lattice index     =            3
     lattice parameter (alat)  =       6.6300  a.u.
     unit-cell volume          =     145.7171 (a.u.)^3
     number of atoms/cell      =            2
     number of atomic types    =            1
     number of electrons       =         6.00
     number of Kohn-Sham states=            7
     kinetic-energy cutoff     =      30.0000  Ry
     charge density cutoff     =     300.0000  Ry
     scf convergence threshold =      1.0E-08
     mixing beta               =       0.7000
     number of iterations used =            8  plain     mixing
     energy convergence thresh.=      1.0E-04
     force convergence thresh. =      1.0E-03
     press convergence thresh. =      5.0E-01
     Exchange-correlation= SLA  PW   PBX  PBC
                           (   1   4   3   4   0   0   0)
     nstep                     =           50

     celldm(1)=   6.630000  celldm(2)=   0.000000  celldm(3)=   0.000000
     celldm(4)=   0.000000  celldm(5)=   0.000000  celldm(6)=   0.000000

     crystal axes: (cart. coord. in units of alat)
               a(1) = (   0.500000   0.500000   0.500000 )
               a(2) = (  -0.500000   0.500000   0.500000 )
               a(3) = (  -0.500000  -0.500000   0.500000 )

     reciprocal axes: (cart. coord. in units 2 pi/alat)
               b(1) = (  1.000000  0.000000  1.000000 )
               b(2) = ( -1.000000  1.000000  0.000000 )
               b(3) = (  0.000000 -1.000000  1.000000 )

     PseudoPot. # 1 for Li read from file:
     ../pseudopotentials/Li.pbe-s-kjpaw_psl.1.0.0.UPF
     MD5 check sum: d3662511b3860c829f7212fdb89d6128
     Pseudo is Projector augmented-wave, Zval =  3.0
     Generated using &quot;atomic&quot; code by A. Dal Corso  v.6.3
     Shape of augmentation charge: PSQ
     Using radial grid of 1017 points,  4 beta functions with:
                l(1) =   0
                l(2) =   0
                l(3) =   1
                l(4) =   1
     Q(r) pseudized with 0 coefficients

     atomic species   valence    mass     pseudopotential
     Li                3.00     6.94000     Li( 1.00)

     12 Sym. Ops., with inversion, found

   Cartesian axes

     site n.     atom                  positions (alat units)
         1        Li     tau(   1) = (   0.0000000   0.0000000   0.0000000  )
         2        Li     tau(   2) = (  -0.2500000   0.2500000   0.7500000  )

     number of k points=    32  Gaussian smearing, width (Ry)=  0.0100
                       cart. coord. in units 2pi/alat
        k(    1) = (   0.0000000   0.0000000   0.0000000), wk =   0.0092593
        k(    2) = (   0.0000000  -0.1666667   0.1666667), wk =   0.0555556
        k(    3) = (   0.0000000  -0.3333333   0.3333333), wk =   0.0555556
        k(    4) = (   0.0000000   0.5000000  -0.5000000), wk =   0.0277778
        k(    5) = (  -0.1666667  -0.1666667   0.3333333), wk =   0.1111111
        k(    6) = (  -0.1666667   0.6666667  -0.5000000), wk =   0.1111111
        k(    7) = (  -0.3333333   0.6666667  -0.3333333), wk =   0.0555556
        k(    8) = (   0.0000000   0.0000000   0.3333333), wk =   0.0555556
        k(    9) = (   0.0000000  -0.1666667   0.5000000), wk =   0.1111111
        k(   10) = (   0.0000000   0.6666667  -0.3333333), wk =   0.0555556
        k(   11) = (  -0.1666667   0.8333333  -0.3333333), wk =   0.1111111
        k(   12) = (   0.6666667  -0.6666667   0.3333333), wk =   0.0555556
        k(   13) = (   0.5000000  -0.5000000   0.3333333), wk =   0.0555556
        k(   14) = (   0.0000000   0.0000000   0.6666667), wk =   0.0555556
        k(   15) = (   0.0000000   0.8333333  -0.1666667), wk =   0.0555556
        k(   16) = (   0.0000000   0.0000000  -1.0000000), wk =   0.0092593
        k(   17) = (   0.0000000   0.1666667   0.1666667), wk =   0.0555556
        k(   18) = (   0.0000000   0.3333333   0.3333333), wk =   0.0555556
        k(   19) = (   0.0000000  -0.5000000  -0.5000000), wk =   0.0277778
        k(   20) = (  -0.1666667   0.1666667  -0.3333333), wk =   0.0555556
        k(   21) = (  -0.1666667  -0.3333333  -0.1666667), wk =   0.0555556
        k(   22) = (  -0.1666667  -0.6666667   0.5000000), wk =   0.1111111
        k(   23) = (  -0.1666667  -0.5000000  -0.6666667), wk =   0.1111111
        k(   24) = (  -0.1666667   0.5000000   0.6666667), wk =   0.1111111
        k(   25) = (  -0.3333333   0.3333333   0.6666667), wk =   0.0185185
        k(   26) = (   0.0000000   0.5000000   0.1666667), wk =   0.1111111
        k(   27) = (   0.0000000  -0.3333333  -0.6666667), wk =   0.0555556
        k(   28) = (  -0.1666667  -0.8333333   0.3333333), wk =   0.0555556
        k(   29) = (  -0.1666667   0.3333333   0.8333333), wk =   0.0555556
        k(   30) = (   0.6666667   0.3333333   0.6666667), wk =   0.0185185
        k(   31) = (   0.5000000   0.5000000  -0.3333333), wk =   0.0555556
        k(   32) = (   0.0000000  -0.1666667  -0.8333333), wk =   0.0555556

     Initial potential from superposition of free atoms

     starting charge       5.9908, renormalised to       6.0000
     Starting wfcs are   10 randomized atomic wfcs
     Checking if some PAW data can be deallocated...

     Self-consistent Calculation

     iteration #  1     ecut=    30.00 Ry     beta= 0.70
     Davidson diagonalization with overlap
     ethr =  1.00E-02,  avg # of iterations =  3.3

     Threshold (ethr) on eigenvalues was too large:
     Diagonalizing with lowered threshold

     Davidson diagonalization with overlap
     ethr =  3.37E-04,  avg # of iterations =  1.1

     total energy              =     -29.72511666 Ry
     estimated scf accuracy    <       0.02078184 Ry

[...]

     End of self-consistent calculation

          k = 0.0000 0.0000 0.0000 (   381 PWs)   bands (ev):

   -46.4106 -44.2924  -0.2185  10.4735  13.6743  13.6743  18.2800

[...]

          k =-0.1667-0.1667 0.3333 (   395 PWs)   bands (ev):

[...]

     the Fermi energy is     4.1441 ev

!    total energy              =     -29.72622611 Ry
     total all-electron energy =       -29.726249 Ry
     estimated scf accuracy    <          1.3E-09 Ry
     smearing contrib. (-TS)   =      -0.00028701 Ry
     internal energy E=F+TS    =     -29.72593910 Ry

     The total energy is F=E-TS. E is the sum of the following terms:
     one-electron contribution =     -19.07161676 Ry
     hartree contribution      =       7.39167440 Ry
     xc contribution           =      -7.22289661 Ry
     ewald contribution        =     -10.96887267 Ry
     one-center paw contrib.   =       0.14577254 Ry

     convergence has been achieved in   5 iterations

     Forces acting on atoms (cartesian axes, Ry/au):

     atom    1 type  1   force =     0.00000000    0.00000000    0.00000000
     atom    2 type  1   force =     0.00000000    0.00000000    0.00000000

     Total force =     0.000000     Total SCF correction =     0.000000

     Computing stress (Cartesian axis) and pressure

          total   stress  (Ry/bohr**3)                   (kbar)     P=     -165.78
  -0.00112693  -0.00206254   0.00206254         -165.78     -303.41      303.41
  -0.00206254  -0.00112693  -0.00206254         -303.41     -165.78     -303.41
   0.00206254  -0.00206254  -0.00112693          303.41     -303.41     -165.78

     BFGS Geometry Optimization
     Energy error            =      0.0E+00 Ry
     Gradient error          =      0.0E+00 Ry/Bohr
     Cell gradient error     =      3.0E+02 kbar

     number of scf cycles    =   1
     number of bfgs steps    =   0

     enthalpy           new  =     -29.7262261096 Ry

     new trust radius        =       0.1887347145 bohr
     new conv_thr            =       0.0000000100 Ry

     new unit-cell volume =    132.65532 a.u.^3 (    19.65749 Ang^3 )
     density =      1.17249 g/cm^3

CELL_PARAMETERS (alat=  6.63000000)
   0.485913418   0.434350038   0.485913418
  -0.485913418   0.485913418   0.434350038
  -0.434350038  -0.485913418   0.485913418

ATOMIC_POSITIONS (crystal)
Li               0.0000000000        0.0000000000        0.0000000000
Li               0.5000000000        0.5000000000        0.5000000000

     Writing config-only to output data dir ./tmp/Li_BCC.save/ :
     XML data file
     NEW-OLD atomic charge density approx. for the potential

[...]

     Energy error            =      6.9E-02 Ry
     Gradient error          =      5.2E-31 Ry/Bohr
     Cell gradient error     =      9.1E+01 kbar

[...]

     enthalpy           old  =     -29.7262261096 Ry
     enthalpy           new  =     -29.7952204884 Ry

     CASE: enthalpy          _new < enthalpy          _old

[...]

     number of scf cycles    =   5
     number of bfgs steps    =   4

     enthalpy           old  =     -29.8042962176 Ry
     enthalpy           new  =     -29.8043018227 Ry

     CASE: enthalpy          _new < enthalpy          _old

     new trust radius        =       0.0006487680 bohr
     new conv_thr            =            1.0E-10 Ry

     new unit-cell volume =    122.31722 a.u.^3 (    18.12554 Ang^3 )
     density =      1.27159 g/cm^3

[...]

ATOMIC_POSITIONS (crystal)
Li               0.0000000000       -0.0000000000        0.0000000000
Li               0.5000000000        0.5000000000        0.5000000000

     Writing config-only to output data dir ./tmp/Li_BCC.save/ :
     XML data file
     NEW-OLD atomic charge density approx. for the potential

[...]

     Threshold (ethr) on eigenvalues was too large:
     Diagonalizing with lowered threshold

     Davidson diagonalization with overlap
     ethr =  4.41E-10,  avg # of iterations =  1.4

[...]

     Energy error            =      4.8E-07 Ry
     Gradient error          =      2.6E-31 Ry/Bohr
     Cell gradient error     =      3.5E-03 kbar

     bfgs converged in   6 scf cycles and   5 bfgs steps
     (criteria: energy <  1.0E-04 Ry, force <  1.0E-03 Ry/Bohr, cell <  5.0E-01 kbar)

     End of BFGS Geometry Optimization

     Final enthalpy           =     -29.8043023065 Ry

     File ./tmp/Li_BCC.bfgs deleted, as requested
Begin final coordinates
     new unit-cell volume =    122.31722 a.u.^3 (    18.12554 Ang^3 )
     density =      1.27159 g/cm^3

CELL_PARAMETERS (alat=  6.63000000)
   0.474486886   0.399451915   0.474486886
  -0.474486886   0.474486886   0.399451915
  -0.399451915  -0.474486886   0.474486886

ATOMIC_POSITIONS (crystal)
Li               0.0000000000       -0.0000000000        0.0000000000
Li               0.5000000000        0.5000000000        0.5000000000
End final coordinates

     Writing config-only to output data dir ./tmp/Li_BCC.save/ :
     XML data file

     Final scf calculation at the relaxed structure.
     The G-vectors are recalculated for the final unit cell
     Results may differ from those at the preceding step.

     Using Slab Decomposition

     bravais-lattice index     =            3
     lattice parameter (alat)  =       6.6300  a.u.
     unit-cell volume          =     122.3172 (a.u.)^3
     number of atoms/cell      =            2
     number of atomic types    =            1
     number of electrons       =         6.00
     number of Kohn-Sham states=            7
     kinetic-energy cutoff     =      30.0000  Ry
     charge density cutoff     =     300.0000  Ry
     scf convergence threshold =      1.0E-10
     mixing beta               =       0.7000
     number of iterations used =            8  plain     mixing
     press convergence thresh. =      5.0E-01
     Exchange-correlation= SLA  PW   PBX  PBC
                           (   1   4   3   4   0   0   0)

     celldm(1)=   6.630000  celldm(2)=   0.000000  celldm(3)=   0.000000
     celldm(4)=   0.000000  celldm(5)=   0.000000  celldm(6)=   0.000000

     crystal axes: (cart. coord. in units of alat)
               a(1) = (   0.474487   0.399452   0.474487 )
               a(2) = (  -0.474487   0.474487   0.399452 )
               a(3) = (  -0.399452  -0.474487   0.474487 )

     reciprocal axes: (cart. coord. in units 2 pi/alat)
               b(1) = (  0.988003  0.156242  0.988003 )
               b(2) = ( -0.988003  0.988003  0.156242 )
               b(3) = ( -0.156242 -0.988003  0.988003 )

     PseudoPot. # 1 for Li read from file:
     ../pseudopotentials/Li.pbe-s-kjpaw_psl.1.0.0.UPF
     MD5 check sum: d3662511b3860c829f7212fdb89d6128
     Pseudo is Projector augmented-wave, Zval =  3.0
     Generated using &quot;atomic&quot; code by A. Dal Corso  v.6.3
     Shape of augmentation charge: PSQ
     Using radial grid of 1017 points,  4 beta functions with:
                l(1) =   0
                l(2) =   0
                l(3) =   1
                l(4) =   1
     Q(r) pseudized with 0 coefficients

     atomic species   valence    mass     pseudopotential
     Li                3.00     6.94000     Li( 1.00)

     12 Sym. Ops., with inversion, found

   Cartesian axes

     site n.     atom                  positions (alat units)
         1        Li     tau(   1) = (  -0.0000000  -0.0000000   0.0000000  )
         2        Li     tau(   2) = (  -0.1997260   0.1997260   0.6742128  )

     number of k points=    32  Gaussian smearing, width (Ry)=  0.0100
                       cart. coord. in units 2pi/alat
        k(    1) = (   0.0000000   0.0000000   0.0000000), wk =   0.0092593
        k(    2) = (  -0.0260403  -0.1646672   0.1646672), wk =   0.0555556
        k(    3) = (  -0.0520807  -0.3293343   0.3293343), wk =   0.0555556
        k(    4) = (   0.0781210   0.4940015  -0.4940015), wk =   0.0277778
        k(    5) = (  -0.2167478  -0.1646672   0.3553746), wk =   0.1111111
        k(    6) = (  -0.0865462   0.6586686  -0.4679611), wk =   0.1111111
        k(    7) = (  -0.2772536   0.6586686  -0.2772536), wk =   0.0555556
        k(    8) = (  -0.0260403   0.0260403   0.3553746), wk =   0.0555556
        k(    9) = (  -0.0520807  -0.1386268   0.5200418), wk =   0.1111111
        k(   10) = (   0.0781210   0.6847089  -0.3032940), wk =   0.0555556
        k(   11) = (  -0.0865462   0.8493761  -0.2772536), wk =   0.1111111
        k(   12) = (   0.6326283  -0.6326283   0.2512133), wk =   0.0555556
        k(   13) = (   0.4679611  -0.4679611   0.2772536), wk =   0.0555556
        k(   14) = (  -0.0520807   0.0520807   0.7107493), wk =   0.0555556
        k(   15) = (   0.0781210   0.8754164  -0.1125865), wk =   0.0555556
        k(   16) = (   0.0781210  -0.0781210  -1.0661239), wk =   0.0092593
        k(   17) = (   0.0000000   0.1907075   0.1907075), wk =   0.0555556
        k(   18) = (   0.0000000   0.3814150   0.3814150), wk =   0.0555556
        k(   19) = (   0.0000000  -0.5721224  -0.5721224), wk =   0.0277778
        k(   20) = (  -0.1386268   0.1386268  -0.3293343), wk =   0.0555556
        k(   21) = (  -0.1907075  -0.3814150  -0.1907075), wk =   0.0555556
        k(   22) = (  -0.2688285  -0.6847089   0.4940015), wk =   0.1111111
        k(   23) = (  -0.1646672  -0.5981628  -0.7367896), wk =   0.1111111
        k(   24) = (  -0.1907075   0.5721224   0.7628299), wk =   0.1111111
        k(   25) = (  -0.3814150   0.3814150   0.7628299), wk =   0.0185185
        k(   26) = (   0.0260403   0.5460821   0.2167478), wk =   0.1111111
        k(   27) = (   0.0260403  -0.4074553  -0.7367896), wk =   0.0555556
        k(   28) = (  -0.2688285  -0.8754164   0.3032940), wk =   0.0555556
        k(   29) = (  -0.2167478   0.4074553   0.9274971), wk =   0.0555556
        k(   30) = (   0.6847089   0.4595359   0.6847089), wk =   0.0185185
        k(   31) = (   0.5981628   0.5460821  -0.3553746), wk =   0.0555556
        k(   32) = (   0.0520807  -0.2427881  -0.9014567), wk =   0.0555556

     Initial potential from superposition of free atoms

     starting charge       5.9908, renormalised to       6.0000
     Starting wfcs are   10 randomized atomic wfcs
     Checking if some PAW data can be deallocated...

     Self-consistent Calculation

[...]

     total energy              =     -29.77375997 Ry
     estimated scf accuracy    <       0.00000006 Ry

     iteration #  5     ecut=    30.00 Ry     beta= 0.70
     Davidson diagonalization with overlap
     ethr =  9.73E-10,  avg # of iterations =  1.9

     End of self-consistent calculation

[...]

          k =-0.2167 0.4075 0.9275 (   332 PWs)   bands (ev):

[...]

          k = 0.0521-0.2428-0.9015 (   332 PWs)   bands (ev):

   -43.1148 -42.5019   4.9409   8.2272   8.8230  12.8802  12.9797

     the Fermi energy is     4.8491 ev

!    total energy              =     -29.77375998 Ry
     total all-electron energy =       -29.773783 Ry
     estimated scf accuracy    <          9.9E-11 Ry
     smearing contrib. (-TS)   =      -0.00036362 Ry
     internal energy E=F+TS    =     -29.77339636 Ry

     The total energy is F=E-TS. E is the sum of the following terms:
     one-electron contribution =     -16.76428315 Ry
     hartree contribution      =       6.73795077 Ry
     xc contribution           =      -7.29681533 Ry
     ewald contribution        =     -12.59736624 Ry
     one-center paw contrib.   =       0.14711759 Ry

     convergence has been achieved in   5 iterations

     Forces acting on atoms (cartesian axes, Ry/au):

     atom    1 type  1   force =     0.00000000    0.00000000   -0.00000000
     atom    2 type  1   force =    -0.00000000   -0.00000000    0.00000000

     Total force =     0.000000     Total SCF correction =     0.000000

     Computing stress (Cartesian axis) and pressure

          total   stress  (Ry/bohr**3)                   (kbar)     P=      -93.06
  -0.00063258  -0.00106568   0.00106568          -93.06     -156.77      156.77
  -0.00106568  -0.00063258  -0.00106568         -156.77      -93.06     -156.77
   0.00106568  -0.00106568  -0.00063258          156.77     -156.77      -93.06

     Writing all to output data dir ./tmp/Li_BCC.save/ :
     XML data file, charge density, pseudopotentials, collected wavefunctions

     General routines

     Parallel routines

   This run was terminated on:  13:30:55   3Feb2025

   JOB DONE.