     Program PWSCF v.7.3.1 starts on 21Jan2025 at  7:59:35

     Reading input from li_scf_single.in

     Current dimensions of program PWSCF are:
     Max number of different atomic species (ntypx) = 10
     Max number of k-points (npk) =  40000
     Max angular momentum in pseudopotentials (lmaxx) =  4
     Found identity + ( -0.5000 -0.5000 -0.5000) symmetry
     This is a supercell, fractional translations are disabled

     R & G space division:  proc/nbgrp/npool/nimage =       4
     Subspace diagonalization in iterative solution of the eigenvalue problem:
     a serial algorithm will be used

     Using Slab Decomposition

     bravais-lattice index     =            3
     lattice parameter (alat)  =      10.0000  a.u.
     unit-cell volume          =     500.0000 (a.u.)^3
     number of atoms/cell      =            2
     number of atomic types    =            1
     number of electrons       =         6.00
     number of Kohn-Sham states=            7
     kinetic-energy cutoff     =      30.0000  Ry
     charge density cutoff     =     300.0000  Ry
     scf convergence threshold =      1.0E-08
     mixing beta               =       0.7000
     number of iterations used =            8  plain     mixing
     energy convergence thresh.=      1.0E-04
     force convergence thresh. =      1.0E-03
     press convergence thresh. =      5.0E-01
     Exchange-correlation= SLA  PW   PBX  PBC
                           (   1   4   3   4   0   0   0)
     nstep                     =           50

     celldm(1)=  10.000000  celldm(2)=   0.000000  celldm(3)=   0.000000
     celldm(4)=   0.000000  celldm(5)=   0.000000  celldm(6)=   0.000000

     crystal axes: (cart. coord. in units of alat)
               a(1) = (   0.500000   0.500000   0.500000 )
               a(2) = (  -0.500000   0.500000   0.500000 )
               a(3) = (  -0.500000  -0.500000   0.500000 )

     reciprocal axes: (cart. coord. in units 2 pi/alat)
               b(1) = (  1.000000  0.000000  1.000000 )
               b(2) = ( -1.000000  1.000000  0.000000 )
               b(3) = (  0.000000 -1.000000  1.000000 )

     PseudoPot. # 1 for Li read from file:
     ../pseudopotentials/Li.pbe-s-kjpaw_psl.1.0.0.UPF
     MD5 check sum: d3662511b3860c829f7212fdb89d6128
     Pseudo is Projector augmented-wave, Zval =  3.0
     Generated using &quot;atomic&quot; code by A. Dal Corso  v.6.3
     Shape of augmentation charge: PSQ
     Using radial grid of 1017 points,  4 beta functions with:
                l(1) =   0
                l(2) =   0
                l(3) =   1
                l(4) =   1
     Q(r) pseudized with 0 coefficients

     atomic species   valence    mass     pseudopotential
     Li                3.00     6.94000     Li( 1.00)

     12 Sym. Ops., with inversion, found

   Cartesian axes

     site n.     atom                  positions (alat units)
         1        Li     tau(   1) = (   0.0000000   0.0000000   0.0000000  )
         2        Li     tau(   2) = (  -0.2500000   0.2500000   0.7500000  )

     number of k points=    32  Gaussian smearing, width (Ry)=  0.0100
                       cart. coord. in units 2pi/alat
        k(    1) = (   0.0000000   0.0000000   0.0000000), wk =   0.0092593
        k(    2) = (   0.0000000  -0.1666667   0.1666667), wk =   0.0555556
        k(    3) = (   0.0000000  -0.3333333   0.3333333), wk =   0.0555556
        k(    4) = (   0.0000000   0.5000000  -0.5000000), wk =   0.0277778
        k(    5) = (  -0.1666667  -0.1666667   0.3333333), wk =   0.1111111
        k(    6) = (  -0.1666667   0.6666667  -0.5000000), wk =   0.1111111
        k(    7) = (  -0.3333333   0.6666667  -0.3333333), wk =   0.0555556
        k(    8) = (   0.0000000   0.0000000   0.3333333), wk =   0.0555556
        k(    9) = (   0.0000000  -0.1666667   0.5000000), wk =   0.1111111
        k(   10) = (   0.0000000   0.6666667  -0.3333333), wk =   0.0555556
        k(   11) = (  -0.1666667   0.8333333  -0.3333333), wk =   0.1111111
        k(   12) = (   0.6666667  -0.6666667   0.3333333), wk =   0.0555556
        k(   13) = (   0.5000000  -0.5000000   0.3333333), wk =   0.0555556
        k(   14) = (   0.0000000   0.0000000   0.6666667), wk =   0.0555556
        k(   15) = (   0.0000000   0.8333333  -0.1666667), wk =   0.0555556
        k(   16) = (   0.0000000   0.0000000  -1.0000000), wk =   0.0092593
        k(   17) = (   0.0000000   0.1666667   0.1666667), wk =   0.0555556
        k(   18) = (   0.0000000   0.3333333   0.3333333), wk =   0.0555556
        k(   19) = (   0.0000000  -0.5000000  -0.5000000), wk =   0.0277778
        k(   20) = (  -0.1666667   0.1666667  -0.3333333), wk =   0.0555556
        k(   21) = (  -0.1666667  -0.3333333  -0.1666667), wk =   0.0555556
        k(   22) = (  -0.1666667  -0.6666667   0.5000000), wk =   0.1111111
        k(   23) = (  -0.1666667  -0.5000000  -0.6666667), wk =   0.1111111
        k(   24) = (  -0.1666667   0.5000000   0.6666667), wk =   0.1111111
        k(   25) = (  -0.3333333   0.3333333   0.6666667), wk =   0.0185185
        k(   26) = (   0.0000000   0.5000000   0.1666667), wk =   0.1111111
        k(   27) = (   0.0000000  -0.3333333  -0.6666667), wk =   0.0555556
        k(   28) = (  -0.1666667  -0.8333333   0.3333333), wk =   0.0555556
        k(   29) = (  -0.1666667   0.3333333   0.8333333), wk =   0.0555556
        k(   30) = (   0.6666667   0.3333333   0.6666667), wk =   0.0185185
        k(   31) = (   0.5000000   0.5000000  -0.3333333), wk =   0.0555556
        k(   32) = (   0.0000000  -0.1666667  -0.8333333), wk =   0.0555556

     Initial potential from superposition of free atoms

     starting charge       5.9908, renormalised to       6.0000
     Starting wfcs are   10 randomized atomic wfcs
     Checking if some PAW data can be deallocated...

     Self-consistent Calculation

     iteration #  1     ecut=    30.00 Ry     beta= 0.70
     Davidson diagonalization with overlap
     ethr =  1.00E-02,  avg # of iterations =  3.0

     Threshold (ethr) on eigenvalues was too large:
     Diagonalizing with lowered threshold

     Davidson diagonalization with overlap
     ethr =  2.46E-04,  avg # of iterations =  2.2

     total energy              =     -29.80671684 Ry
     estimated scf accuracy    <       0.01471218 Ry

[...]

     End of self-consistent calculation

          k = 0.0000 0.0000 0.0000 (  1409 PWs)   bands (ev):

   -49.8333 -49.6945  -3.1217   1.6118   3.5831   3.5831   6.1755

[...]

          k =-0.1667-0.1667 0.3333 (  1389 PWs)   bands (ev):

[...]

     the Fermi energy is    -0.4586 ev

!    total energy              =     -29.80757059 Ry
     total all-electron energy =       -29.807593 Ry
     estimated scf accuracy    <          2.0E-09 Ry
     smearing contrib. (-TS)   =      -0.00069390 Ry
     internal energy E=F+TS    =     -29.80687669 Ry

     The total energy is F=E-TS. E is the sum of the following terms:
     one-electron contribution =     -25.07835848 Ry
     hartree contribution      =       9.29664619 Ry
     xc contribution           =      -6.89779326 Ry
     ewald contribution        =      -7.27236258 Ry
     one-center paw contrib.   =       0.14499144 Ry

     convergence has been achieved in   5 iterations

     Forces acting on atoms (cartesian axes, Ry/au):

     atom    1 type  1   force =     0.00000000    0.00000000    0.00000000
     atom    2 type  1   force =     0.00000000    0.00000000    0.00000000

     Total force =     0.000000     Total SCF correction =     0.000000

     Computing stress (Cartesian axis) and pressure

          total   stress  (Ry/bohr**3)                   (kbar)     P=     -119.92
  -0.00081518  -0.00035971   0.00035971         -119.92      -52.91       52.91
  -0.00035971  -0.00081518  -0.00035971          -52.91     -119.92      -52.91
   0.00035971  -0.00035971  -0.00081518           52.91      -52.91     -119.92

     BFGS Geometry Optimization
     Energy error            =      0.0E+00 Ry
     Gradient error          =      0.0E+00 Ry/Bohr
     Cell gradient error     =      1.2E+02 kbar

     number of scf cycles    =   1
     number of bfgs steps    =   0

     enthalpy           new  =     -29.8075705898 Ry

     new trust radius        =       0.1074297209 bohr
     new conv_thr            =       0.0000000100 Ry

     new unit-cell volume =    469.93148 a.u.^3 (    69.63666 Ang^3 )
     density =      0.33098 g/cm^3

CELL_PARAMETERS (alat= 10.00000000)
   0.489810277   0.480817629   0.489810277
  -0.489810277   0.489810277   0.480817629
  -0.480817629  -0.489810277   0.489810277

ATOMIC_POSITIONS (crystal)
Li               0.0000000000        0.0000000000        0.0000000000
Li               0.5000000000        0.5000000000        0.5000000000

     Writing config-only to output data dir ./tmp/Li_BCC.save/ :
     XML data file
     NEW-OLD atomic charge density approx. for the potential

[...]

     Energy error            =      3.3E-02 Ry
     Gradient error          =      5.3E-31 Ry/Bohr
     Cell gradient error     =      1.1E+02 kbar

[...]

     enthalpy           old  =     -29.8075705898 Ry
     enthalpy           new  =     -29.8409242972 Ry

     CASE: enthalpy          _new < enthalpy          _old

     WARNING: bfgs curvature condition failed, Theta= 0.863
     new trust radius        =       0.1609373463 bohr
     new conv_thr            =            1.0E-10 Ry

[...]

     WARNING: bfgs curvature condition failed, Theta= 0.964
     new trust radius        =       0.0008301708 bohr
     new conv_thr            =            1.0E-10 Ry

[...]

     number of scf cycles    =  12
     number of bfgs steps    =  11

     enthalpy           old  =     -30.0332074092 Ry
     enthalpy           new  =     -30.0332101870 Ry

     CASE: enthalpy          _new < enthalpy          _old

     new trust radius        =       0.0014795390 bohr
     new conv_thr            =            1.0E-10 Ry

     new unit-cell volume =    203.63702 a.u.^3 (    30.17589 Ang^3 )
     density =      0.76380 g/cm^3

[...]

ATOMIC_POSITIONS (crystal)
Li              -0.0000000000        0.0000000000       -0.0000000000
Li               0.5000000000        0.5000000000        0.5000000000

     Writing config-only to output data dir ./tmp/Li_BCC.save/ :
     XML data file
     NEW-OLD atomic charge density approx. for the potential

[...]

     Threshold (ethr) on eigenvalues was too large:
     Diagonalizing with lowered threshold

     Davidson diagonalization with overlap
     ethr =  6.51E-10,  avg # of iterations =  2.2

[...]

     Energy error            =      1.2E-06 Ry
     Gradient error          =      0.0E+00 Ry/Bohr
     Cell gradient error     =      2.4E-03 kbar

     bfgs converged in  13 scf cycles and  12 bfgs steps
     (criteria: energy <  1.0E-04 Ry, force <  1.0E-03 Ry/Bohr, cell <  5.0E-01 kbar)

     End of BFGS Geometry Optimization

     Final enthalpy           =     -30.0332113494 Ry

     File ./tmp/Li_BCC.bfgs deleted, as requested
Begin final coordinates
     new unit-cell volume =    203.63702 a.u.^3 (    30.17589 Ang^3 )
     density =      0.76380 g/cm^3

CELL_PARAMETERS (alat= 10.00000000)
   0.378032463   0.267715426   0.378032463
  -0.378032463   0.378032463   0.267715426
  -0.267715426  -0.378032463   0.378032463

ATOMIC_POSITIONS (crystal)
Li              -0.0000000000        0.0000000000       -0.0000000000
Li               0.5000000000        0.5000000000        0.5000000000
End final coordinates

     Writing config-only to output data dir ./tmp/Li_BCC.save/ :
     XML data file

     Final scf calculation at the relaxed structure.
     The G-vectors are recalculated for the final unit cell
     Results may differ from those at the preceding step.

     Using Slab Decomposition

     bravais-lattice index     =            3
     lattice parameter (alat)  =      10.0000  a.u.
     unit-cell volume          =     203.6370 (a.u.)^3
     number of atoms/cell      =            2
     number of atomic types    =            1
     number of electrons       =         6.00
     number of Kohn-Sham states=            7
     kinetic-energy cutoff     =      30.0000  Ry
     charge density cutoff     =     300.0000  Ry
     scf convergence threshold =      1.0E-10
     mixing beta               =       0.7000
     number of iterations used =            8  plain     mixing
     press convergence thresh. =      5.0E-01
     Exchange-correlation= SLA  PW   PBX  PBC
                           (   1   4   3   4   0   0   0)

     celldm(1)=  10.000000  celldm(2)=   0.000000  celldm(3)=   0.000000
     celldm(4)=   0.000000  celldm(5)=   0.000000  celldm(6)=   0.000000

     crystal axes: (cart. coord. in units of alat)
               a(1) = (   0.378032   0.267715   0.378032 )
               a(2) = (  -0.378032   0.378032   0.267715 )
               a(3) = (  -0.267715  -0.378032   0.378032 )

     reciprocal axes: (cart. coord. in units 2 pi/alat)
               b(1) = (  1.198769  0.349823  1.198769 )
               b(2) = ( -1.198769  1.198769  0.349823 )
               b(3) = ( -0.349823 -1.198769  1.198769 )

     PseudoPot. # 1 for Li read from file:
     ../pseudopotentials/Li.pbe-s-kjpaw_psl.1.0.0.UPF
     MD5 check sum: d3662511b3860c829f7212fdb89d6128
     Pseudo is Projector augmented-wave, Zval =  3.0
     Generated using &quot;atomic&quot; code by A. Dal Corso  v.6.3
     Shape of augmentation charge: PSQ
     Using radial grid of 1017 points,  4 beta functions with:
                l(1) =   0
                l(2) =   0
                l(3) =   1
                l(4) =   1
     Q(r) pseudized with 0 coefficients

     atomic species   valence    mass     pseudopotential
     Li                3.00     6.94000     Li( 1.00)

     12 Sym. Ops., with inversion, found

   Cartesian axes

     site n.     atom                  positions (alat units)
         1        Li     tau(   1) = (  -0.0000000   0.0000000  -0.0000000  )
         2        Li     tau(   2) = (  -0.1338577   0.1338577   0.5118902  )

     number of k points=    32  Gaussian smearing, width (Ry)=  0.0100
                       cart. coord. in units 2pi/alat
        k(    1) = (   0.0000000   0.0000000   0.0000000), wk =   0.0092593
        k(    2) = (  -0.0583039  -0.1997948   0.1997948), wk =   0.0555556
        k(    3) = (  -0.1166078  -0.3995895   0.3995895), wk =   0.0555556
        k(    4) = (   0.1749117   0.5993843  -0.5993843), wk =   0.0277778
        k(    5) = (  -0.3164026  -0.1997948   0.4578934), wk =   0.1111111
        k(    6) = (  -0.0248831   0.7991791  -0.5410804), wk =   0.1111111
        k(    7) = (  -0.2829817   0.7991791  -0.2829817), wk =   0.0555556
        k(    8) = (  -0.0583039   0.0583039   0.4578934), wk =   0.0555556
        k(    9) = (  -0.1166078  -0.1414909   0.6576882), wk =   0.1111111
        k(   10) = (   0.1749117   0.8574830  -0.3412856), wk =   0.0555556
        k(   11) = (  -0.0248831   1.0572777  -0.2829817), wk =   0.1111111
        k(   12) = (   0.7408752  -0.7408752   0.2246778), wk =   0.0555556
        k(   13) = (   0.5410804  -0.5410804   0.2829817), wk =   0.0555556
        k(   14) = (  -0.1166078   0.1166078   0.9157869), wk =   0.0555556
        k(   15) = (   0.1749117   1.1155816  -0.0831870), wk =   0.0555556
        k(   16) = (   0.1749117  -0.1749117  -1.3736803), wk =   0.0092593
        k(   17) = (  -0.0000000   0.2580987   0.2580987), wk =   0.0555556
        k(   18) = (  -0.0000000   0.5161973   0.5161973), wk =   0.0555556
        k(   19) = (   0.0000000  -0.7742960  -0.7742960), wk =   0.0277778
        k(   20) = (  -0.1414909   0.1414909  -0.3995895), wk =   0.0555556
        k(   21) = (  -0.2580987  -0.5161973  -0.2580987), wk =   0.0555556
        k(   22) = (  -0.4330104  -0.8574830   0.5993843), wk =   0.1111111
        k(   23) = (  -0.1997948  -0.8325999  -0.9740908), wk =   0.1111111
        k(   24) = (  -0.2580987   0.7742960   1.0323947), wk =   0.1111111
        k(   25) = (  -0.5161973   0.5161973   1.0323947), wk =   0.0185185
        k(   26) = (   0.0583039   0.7159921   0.3164026), wk =   0.1111111
        k(   27) = (   0.0583039  -0.5745012  -0.9740908), wk =   0.0555556
        k(   28) = (  -0.4330104  -1.1155816   0.3412856), wk =   0.0555556
        k(   29) = (  -0.3164026   0.5745012   1.2321894), wk =   0.0555556
        k(   30) = (   0.8574830   0.6911090   0.8574830), wk =   0.0185185
        k(   31) = (   0.8325999   0.7159921  -0.4578934), wk =   0.0555556
        k(   32) = (   0.1166078  -0.3747065  -1.1738855), wk =   0.0555556

     Initial potential from superposition of free atoms

     starting charge       5.9908, renormalised to       6.0000
     Starting wfcs are   10 randomized atomic wfcs
     Checking if some PAW data can be deallocated...

     Self-consistent Calculation

     iteration #  1     ecut=    30.00 Ry     beta= 0.70
     Davidson diagonalization with overlap
     c_bands:  1 eigenvalues not converged
     c_bands:  1 eigenvalues not converged
     ethr =  1.00E-06,  avg # of iterations = 10.2

[...]

     total energy              =     -29.91273464 Ry
     estimated scf accuracy    <          1.4E-10 Ry

     iteration #  6     ecut=    30.00 Ry     beta= 0.70
     Davidson diagonalization with overlap
     ethr =  2.38E-12,  avg # of iterations =  2.0

     End of self-consistent calculation

[...]

          k =-0.3164 0.5745 1.2322 (   565 PWs)   bands (ev):

[...]

          k = 0.1166-0.3747-1.1739 (   564 PWs)   bands (ev):

   -45.0558 -44.9837   2.9261   4.5617   5.2161   7.0848   8.1979

     the Fermi energy is     1.9443 ev

!    total energy              =     -29.91273464 Ry
     total all-electron energy =       -29.912757 Ry
     estimated scf accuracy    <          1.5E-12 Ry
     smearing contrib. (-TS)   =      -0.00016110 Ry
     internal energy E=F+TS    =     -29.91257354 Ry

     The total energy is F=E-TS. E is the sum of the following terms:
     one-electron contribution =     -19.42186572 Ry
     hartree contribution      =       7.45872847 Ry
     xc contribution           =      -7.11879365 Ry
     ewald contribution        =     -10.97669974 Ry
     one-center paw contrib.   =       0.14605711 Ry

     convergence has been achieved in   6 iterations

     Forces acting on atoms (cartesian axes, Ry/au):

     atom    1 type  1   force =     0.00000000    0.00000000    0.00000000
     atom    2 type  1   force =     0.00000000    0.00000000    0.00000000

     Total force =     0.000000     Total SCF correction =     0.000000

     Computing stress (Cartesian axis) and pressure

          total   stress  (Ry/bohr**3)                   (kbar)     P=     -211.42
  -0.00143718  -0.00035066   0.00035066         -211.42      -51.58       51.58
  -0.00035066  -0.00143718  -0.00035066          -51.58     -211.42      -51.58
   0.00035066  -0.00035066  -0.00143718           51.58      -51.58     -211.42

     Writing all to output data dir ./tmp/Li_BCC.save/ :
     XML data file, charge density, pseudopotentials, collected wavefunctions

     General routines

     Parallel routines

   This run was terminated on:   7:59:46  21Jan2025

   JOB DONE.