     Program PWSCF v.7.3.1 starts on 18Mar2025 at 16: 3:23

     Reading input from qe_outputs_train_set/Li_preselected_3.in

     Current dimensions of program PWSCF are:
     Max number of different atomic species (ntypx) = 10
     Max number of k-points (npk) =  40000
     Max angular momentum in pseudopotentials (lmaxx) =  4

     Subspace diagonalization in iterative solution of the eigenvalue problem:
     a serial algorithm will be used

     Using Slab Decomposition

     bravais-lattice index     =            1
     lattice parameter (alat)  =       3.5100  a.u.
     unit-cell volume          =      43.2434 (a.u.)^3
     number of atoms/cell      =            2
     number of atomic types    =            1
     number of electrons       =         6.00
     number of Kohn-Sham states=            7
     kinetic-energy cutoff     =      60.0000  Ry
     charge density cutoff     =     300.0000  Ry
     scf convergence threshold =      1.0E-08
     mixing beta               =       0.7000
     number of iterations used =            8  plain     mixing
     Exchange-correlation= SLA  PW   PBX  PBC
                           (   1   4   3   4   0   0   0)

     celldm(1)=   3.509997  celldm(2)=   0.000000  celldm(3)=   0.000000
     celldm(4)=   0.000000  celldm(5)=   0.000000  celldm(6)=   0.000000

     crystal axes: (cart. coord. in units of alat)
               a(1) = (   1.000000   0.000000   0.000000 )
               a(2) = (   0.000000   1.000000   0.000000 )
               a(3) = (   0.000000   0.000000   1.000000 )

     reciprocal axes: (cart. coord. in units 2 pi/alat)
               b(1) = (  1.000000  0.000000  0.000000 )
               b(2) = (  0.000000  1.000000  0.000000 )
               b(3) = (  0.000000  0.000000  1.000000 )

     PseudoPot. # 1 for Li read from file:
     ../pseudopotentials/Li.pbe-s-kjpaw_psl.1.0.0.UPF
     MD5 check sum: d3662511b3860c829f7212fdb89d6128
     Pseudo is Projector augmented-wave, Zval =  3.0
     Generated using &quot;atomic&quot; code by A. Dal Corso  v.6.3
     Shape of augmentation charge: PSQ
     Using radial grid of 1017 points,  4 beta functions with:
                l(1) =   0
                l(2) =   0
                l(3) =   1
                l(4) =   1
     Q(r) pseudized with 0 coefficients

     atomic species   valence    mass     pseudopotential
     Li                3.00     6.94000     Li( 1.00)

     12 Sym. Ops., with inversion, found ( 6 have fractional translation)

   Cartesian axes

     site n.     atom                  positions (alat units)
         1        Li     tau(   1) = (   0.0000230   0.0000230   0.0000230  )
         2        Li     tau(   2) = (   0.4999780   0.4999780   0.4999780  )

     number of k points=    65  Gaussian smearing, width (Ry)=  0.0100
                       cart. coord. in units 2pi/alat
        k(    1) = (   0.0000000   0.0000000   0.0000000), wk =   0.0039062
        k(    2) = (   0.0000000   0.0000000   0.1250000), wk =   0.0234375
        k(    3) = (   0.0000000   0.0000000   0.2500000), wk =   0.0234375
        k(    4) = (   0.0000000   0.0000000   0.3750000), wk =   0.0234375
        k(    5) = (   0.0000000   0.0000000  -0.5000000), wk =   0.0117188
        k(    6) = (   0.0000000   0.1250000   0.1250000), wk =   0.0234375
        k(    7) = (   0.0000000   0.1250000   0.2500000), wk =   0.0468750
        k(    8) = (   0.0000000   0.1250000   0.3750000), wk =   0.0468750
        k(    9) = (   0.0000000   0.1250000  -0.5000000), wk =   0.0468750
        k(   10) = (   0.0000000   0.2500000   0.2500000), wk =   0.0234375
        k(   11) = (   0.0000000   0.2500000   0.3750000), wk =   0.0468750
        k(   12) = (   0.0000000   0.2500000  -0.5000000), wk =   0.0468750
        k(   13) = (   0.0000000   0.3750000   0.3750000), wk =   0.0234375
        k(   14) = (   0.0000000   0.3750000  -0.5000000), wk =   0.0468750
        k(   15) = (   0.0000000  -0.5000000  -0.5000000), wk =   0.0117188
        k(   16) = (   0.1250000   0.1250000   0.1250000), wk =   0.0078125
        k(   17) = (   0.1250000   0.1250000   0.2500000), wk =   0.0234375
        k(   18) = (   0.1250000   0.1250000   0.3750000), wk =   0.0234375
        k(   19) = (   0.1250000   0.1250000  -0.5000000), wk =   0.0234375
        k(   20) = (   0.1250000   0.2500000   0.2500000), wk =   0.0234375
        k(   21) = (   0.1250000   0.2500000   0.3750000), wk =   0.0468750
        k(   22) = (   0.1250000   0.2500000  -0.5000000), wk =   0.0468750
        k(   23) = (   0.1250000   0.3750000   0.3750000), wk =   0.0234375
        k(   24) = (   0.1250000   0.3750000  -0.5000000), wk =   0.0468750
        k(   25) = (   0.1250000  -0.5000000  -0.5000000), wk =   0.0234375
        k(   26) = (   0.2500000   0.2500000   0.2500000), wk =   0.0078125
        k(   27) = (   0.2500000   0.2500000   0.3750000), wk =   0.0234375
        k(   28) = (   0.2500000   0.2500000  -0.5000000), wk =   0.0234375
        k(   29) = (   0.2500000   0.3750000   0.3750000), wk =   0.0234375
        k(   30) = (   0.2500000   0.3750000  -0.5000000), wk =   0.0468750
        k(   31) = (   0.2500000  -0.5000000  -0.5000000), wk =   0.0234375
        k(   32) = (   0.3750000   0.3750000   0.3750000), wk =   0.0078125
        k(   33) = (   0.3750000   0.3750000  -0.5000000), wk =   0.0234375
        k(   34) = (   0.3750000  -0.5000000  -0.5000000), wk =   0.0234375
        k(   35) = (  -0.5000000  -0.5000000  -0.5000000), wk =   0.0039062
        k(   36) = (   0.0000000   0.1250000  -0.1250000), wk =   0.0234375
        k(   37) = (   0.0000000   0.2500000  -0.1250000), wk =   0.0468750
        k(   38) = (   0.0000000   0.3750000  -0.1250000), wk =   0.0468750
        k(   39) = (   0.0000000   0.2500000  -0.2500000), wk =   0.0234375
        k(   40) = (   0.0000000   0.3750000  -0.2500000), wk =   0.0468750
        k(   41) = (   0.0000000   0.3750000  -0.3750000), wk =   0.0234375
        k(   42) = (  -0.1250000   0.1250000   0.1250000), wk =   0.0234375
        k(   43) = (  -0.1250000   0.2500000   0.1250000), wk =   0.0468750
        k(   44) = (   0.1250000  -0.2500000   0.1250000), wk =   0.0234375
        k(   45) = (  -0.1250000   0.3750000   0.1250000), wk =   0.0468750
        k(   46) = (   0.1250000  -0.3750000   0.1250000), wk =   0.0234375
        k(   47) = (  -0.1250000  -0.5000000   0.1250000), wk =   0.0234375
        k(   48) = (  -0.1250000   0.2500000   0.2500000), wk =   0.0234375
        k(   49) = (   0.1250000   0.2500000  -0.2500000), wk =   0.0468750
        k(   50) = (  -0.1250000   0.3750000   0.2500000), wk =   0.0468750
        k(   51) = (   0.1250000   0.3750000  -0.2500000), wk =   0.0468750
        k(   52) = (   0.1250000  -0.3750000   0.2500000), wk =   0.0468750
        k(   53) = (  -0.1250000  -0.5000000   0.2500000), wk =   0.0468750
        k(   54) = (  -0.1250000   0.3750000   0.3750000), wk =   0.0234375
        k(   55) = (   0.1250000   0.3750000  -0.3750000), wk =   0.0468750
        k(   56) = (  -0.1250000  -0.5000000   0.3750000), wk =   0.0468750
        k(   57) = (  -0.2500000   0.2500000   0.2500000), wk =   0.0234375
        k(   58) = (  -0.2500000   0.3750000   0.2500000), wk =   0.0468750
        k(   59) = (   0.2500000  -0.3750000   0.2500000), wk =   0.0234375
        k(   60) = (  -0.2500000  -0.5000000   0.2500000), wk =   0.0234375
        k(   61) = (  -0.2500000   0.3750000   0.3750000), wk =   0.0234375
        k(   62) = (   0.2500000   0.3750000  -0.3750000), wk =   0.0468750
        k(   63) = (  -0.2500000  -0.5000000   0.3750000), wk =   0.0468750
        k(   64) = (  -0.3750000   0.3750000   0.3750000), wk =   0.0234375
        k(   65) = (  -0.3750000  -0.5000000   0.3750000), wk =   0.0234375

     Initial potential from superposition of free atoms

     starting charge       5.9908, renormalised to       6.0000
     Starting wfcs are   10 randomized atomic wfcs
     Checking if some PAW data can be deallocated...

     Self-consistent Calculation

     iteration #  1     ecut=    60.00 Ry     beta= 0.70
     Davidson diagonalization with overlap
     ethr =  1.00E-02,  avg # of iterations =  5.0

     Threshold (ethr) on eigenvalues was too large:
     Diagonalizing with lowered threshold

     Davidson diagonalization with overlap
     ethr =  1.02E-04,  avg # of iterations =  2.4

     total energy              =     -29.02802992 Ry
     estimated scf accuracy    <       0.00618627 Ry

[...]

     total energy              =     -29.02845153 Ry
     estimated scf accuracy    <       0.00000014 Ry

     iteration #  5     ecut=    60.00 Ry     beta= 0.70
     Davidson diagonalization with overlap
     ethr =  2.39E-09,  avg # of iterations =  2.3

     End of self-consistent calculation

          k = 0.0000 0.0000 0.0000 (   341 PWs)   bands (ev):

   -36.1623 -30.0327  17.1976  32.4262  32.4262  32.4262  37.6125

[...]

          k =-0.5000-0.5000-0.5000 (   304 PWs)   bands (ev):

[...]

          k = 0.2500 0.3750-0.3750 (   335 PWs)   bands (ev):

[...]

          k =-0.3750-0.5000 0.3750 (   330 PWs)   bands (ev):

   -31.5659 -31.5657  18.0710  18.0715  25.3428  25.3443  33.2403

     the Fermi energy is    15.5382 ev

!    total energy              =     -29.02845158 Ry
     total all-electron energy =       -29.028474 Ry
     estimated scf accuracy    <          7.6E-09 Ry
     smearing contrib. (-TS)   =      -0.00079690 Ry
     internal energy E=F+TS    =     -29.02765468 Ry

     The total energy is F=E-TS. E is the sum of the following terms:
     one-electron contribution =      -7.47481223 Ry
     hartree contribution      =       4.95590929 Ry
     xc contribution           =      -8.01931059 Ry
     ewald contribution        =     -18.66275152 Ry
     one-center paw contrib.   =       0.17331037 Ry

     convergence has been achieved in   5 iterations

     Forces acting on atoms (cartesian axes, Ry/au):

     atom    1 type  1   force =     0.00026170    0.00026170    0.00026170
     atom    2 type  1   force =    -0.00026170   -0.00026170   -0.00026170

     Total force =     0.000641     Total SCF correction =     0.000002

     Computing stress (Cartesian axis) and pressure

          total   stress  (Ry/bohr**3)                   (kbar)     P=     4863.27
   0.03305986  -0.00000000  -0.00000000         4863.27       -0.00       -0.00
  -0.00000000   0.03305986  -0.00000000           -0.00     4863.27       -0.00
  -0.00000000  -0.00000000   0.03305986           -0.00       -0.00     4863.27

     Writing all to output data dir ./tmp/Li_preselected_3.save/ :
     XML data file, charge density, pseudopotentials, collected wavefunctions

     General routines

     Parallel routines

   This run was terminated on:  16: 3:24  18Mar2025

   JOB DONE.
Note: The following floating-point exceptions are signalling: IEEE_INVALID_FLAG IEEE_DIVIDE_BY_ZERO IEEE_OVERFLOW_FLAG IEEE_UNDERFLOW_FLAG